experiments/lot-sizing/detailed-output/inst-13-1222707704.dzn

change_cost = array2d(0..14, 0..14,
                      [0, 0, 0, 0, 0, 0, 0, 0, 0, 0, 0, 0, 0, 0, 0,
                       0, 0, 103, 9, 70, 39, 162, 200, 49, 173, 9, 159, 138, 44, 44,
                       0, 164, 0, 83, 19, 27, 150, 117, 105, 119, 94, 63, 124, 70, 114,
                       0, 168, 183, 0, 195, 154, 163, 193, 182, 177, 76, 154, 178, 182, 165,
                       0, 184, 193, 74, 0, 152, 169, 165, 164, 189, 124, 188, 167, 140, 138,
                       0, 139, 135, 60, 42, 0, 197, 185, 142, 167, 96, 191, 110, 109, 154,
                       0, 179, 153, 32, 155, 154, 0, 121, 21, 145, 93, 152, 88, 28, 117,
                       0, 72, 92, 38, 42, 54, 154, 0, 18, 129, 25, 115, 137, 92, 20,
                       0, 168, 146, 155, 151, 139, 180, 184, 0, 156, 99, 179, 144, 114, 185,
                       0, 55, 43, 13, 27, 23, 62, 39, 11, 0, 20, 100, 94, 6, 34,
                       0, 191, 137, 135, 126, 105, 154, 196, 167, 174, 0, 190, 134, 168, 154,
                       0, 197, 200, 81, 192, 165, 143, 153, 76, 189, 138, 0, 87, 71, 167,
                       0, 169, 147, 82, 128, 144, 98, 101, 44, 167, 67, 191, 0, 46, 80,
                       0, 168, 163, 129, 131, 137, 136, 172, 52, 174, 97, 150, 97, 0, 172,
                       0, 129, 121, 132, 75, 73, 195, 197, 156, 163, 83, 119, 158, 165, 0]);
due_period = array1d(1..14, [5, 7, 10, 8, 6, 9, 10, 2, 2, 10, 2, 10, 1, 2]);
inventory_cost = 2;
item_type = array1d(0..14, [0, 1, 1, 1, 1, 2, 3, 4, 5, 6, 6, 7, 7, 7, 7]);
nb_item_types = 7;
nb_of_orders = array1d(1..7, [4, 1, 1, 1, 1, 2, 4]);
nb_orders = 14;
nb_periods = 11;
